{"lblp_lower": [273.34952908051474, 287.2905374499714, 293.1091736694678, 296.75267857142853, 298.3], "cuttingPlaneBendInfo": [{"tot_cut_value": 0, "TOT_gen_cut": 0, "tot_time_opt": 0, "max_time_opt": 0}, {"tot_cut_value": 0, "TOT_gen_cut": 0, "tot_time_opt": 0, "max_time_opt": 0}, {"tot_cut_value": 0, "TOT_gen_cut": 0, "tot_time_opt": 0, "max_time_opt": 0}, {"tot_cut_value": 0, "TOT_gen_cut": 0, "tot_time_opt": 0, "max_time_opt": 0}, {"tot_cut_value": 0, "TOT_gen_cut": 0, "tot_time_opt": 0, "max_time_opt": 0}], "time_compress": [0, 0, 0, 0, 0], "ub_lp": [490.1, 358.60057142857147, 332.2505714285714, 315.2755714285714, 298.30000000000007], "prob_sizes_at_start": [{"timeGraph": 37, "ngGraph": 27}, {"timeGraph": 65, "ngGraph": 79}, {"timeGraph": 122, "ngGraph": 161}, {"timeGraph": 126, "ngGraph": 219}, {"timeGraph": 124, "ngGraph": 250}], "prob_sizes_after_compress": [{"timeGraph": 6, "ngGraph": 19}, {"timeGraph": 37, "ngGraph": 37}, {"timeGraph": 54, "ngGraph": 56}, {"timeGraph": 56, "ngGraph": 82}, {"timeGraph": 46, "ngGraph": 86}], "prob_sizes_after_split": [{"timeGraph": 65, "ngGraph": 79}, {"timeGraph": 122, "ngGraph": 161}, {"timeGraph": 126, "ngGraph": 219}, {"timeGraph": 124, "ngGraph": 250}, {"timeGraph": 81, "ngGraph": 128}], "did_compress": [true, true, true, true, true], "lp_time_project": [0.42334794998168945, 0.12705421447753906, 0.16154909133911133, 0.10671162605285645, 0.057717084884643555], "lp_time_LB": [0.007820844650268555, 0.014137029647827148, 0.028105974197387695, 0.02921009063720703, 0.02390599250793457], "ilp_time": [], "history_of_graphs_by_iter": [], "ROOT_LP_PRIOR_ADDING_CUTS": 298.3, "OUR_ilp_objective": 298.3, "OUR_MIP_Lower_Bound": 298.3, "OUR_ilp_time": 0.013534784317016602, "OUR_gurobi_MILP_str": "Gurobi Optimizer version 12.0.1 build v12.0.1rc0 (mac64[arm] - Darwin 24.5.0 24F74)\n\nCPU model: Apple M1\nThread count: 8 physical cores, 8 logical processors, using up to 8 threads\n\nNon-default parameters:\nTimeLimit  3000\n\nWLS license 2690165 - registered to Optym\nOptimize a model with 2384 rows, 1659 columns and 9509 nonzeros\nModel fingerprint: 0x1f02f229\nVariable types: 52 continuous, 1607 integer (637 binary)\nCoefficient statistics:\n  Matrix range     [1e+00, 2e+02]\n  Objective range  [2e+00, 8e+01]\n  Bounds range     [1e+00, 2e+02]\n  RHS range        [1e+00, 2e+02]\nUsing branch priorities.\nPresolve removed 2363 rows and 1641 columns\nPresolve time: 0.01s\nPresolved: 21 rows, 18 columns, 74 nonzeros\nVariable types: 8 continuous, 10 integer (10 binary)\nFound heuristic solution: objective 363.9000000\nFound heuristic solution: objective 298.3000000\n\nExplored 0 nodes (0 simplex iterations) in 0.01 seconds (0.01 work units)\nThread count was 8 (of 8 available processors)\n\nSolution count 2: 298.3 363.9 \n\nOptimal solution found (tolerance 1.00e-04)\nBest objective 2.983000000000e+02, best bound 2.983000000000e+02, gap 0.0000%\n", "jy_opt": {"ParetoEps": 1e-05, "turn_off_time_windows": false, "deactivate_time_graph": false, "deactivate_demand_graph": false, "epsilon": 0.0001, "weight_slack_projector": 1e-05, "weight_compress": 0.01, "num_cust_use": 25, "dem_step_sz": 1, "time_step_sz": 1, "use_compression": 1, "max_iterations_loop_compress_project": 100, "do_round_dist_times": 1, "my_shift_bet_time_win": 0.0001, "num_terms_per_bin_init_construct": 100, "allOneBig_init": 0, "min_inc_2_compress": 1e-05, "save_graph_each_iter": 0, "use_Xpress": 0, "use_ineq": 1, "xpress_file_loc": "/Users/julian/Documents/FICO_Xpress_Config/xpauth.xpr", "run_baseline": 0, "verbose": 0, "use_NG_graph": 1, "num_NG": 9, "in_demo_mode": 0, "threshold_split": 0.1, "offset_cost_edge_project": 0, "use_classic_compress": 1, "use_classic_compress_last": 1, "num_thresh_split_projector": 1000, "lplb_solver": 4, "compresss_solver": 0, "proj_solver": 4, "use_julians_custom_lp_solver": 0, "do_ilp": 1, "roundingDiscretization_num_digits_keep": 3, "doExrtraRemovalEdgesLB": 0, "use_gurobi": 1, "max_ILP_time": 3000, "use_fancy_ng_graph": 1, "use_dem_graph": 0, "use_time_graph": 1, "num_multiplys_demand": 0, "DEBUG_ALLOW_DUMB_EDGES": 0, "add_all_ng_split_at_end": 0, "do_split_based_init": 0, "think_compress": [0], "use_delta_in_milp": 1, "use_delta_in_lp": 1, "turn_off_non_active_fg_project": 0, "use_new_valid_ineq": 0, "digit_mult_use": 10, "use_branch_on_g": true, "LAB_MP_ON": 0, "LAB_MP_neigh_use_power": 9, "LAB_MP_num_ineq_use": 10, "do_remove_actions_from_incumbant": true, "ub_use_remove": 298.3, "use_packing_in_construction": 1, "maxVarsAdd_in_ITER": 10, "use_ng_size_init": 0, "do_presolve": 0, "use_diving_ineq": 1, "BEND_MIN_LP_OBJECTIVE_CUT": 0.1, "BEND_USE_RAND": 0, "BEND_MAX_SIZE_CHOOSE_K": 230, "BEND_VAL_STOP_ADDING_CUTS": 100000000, "BEND_MY_SIZES_USE": [9], "NUMERICAL_BEND_OFFSET_COST_CUT": 0.0001, "NUMERICAL_BEND_EPSILON_MULT_PARETO_OBJ": 0.001, "NO_PARETO_NUMERICAL_BEND_OFFSET_COST_CUT": 0, "NO_PARETO_BEND_VAL_STOP_ADDING_CUTS": 1, "NO_PARETO_EPSILON_MAX_VAL_CON": 0.01, "BENDERS_NEIGH_SZ_USE": 9, "Actions_of_given_sol": [], "all_vars_binary": 1, "restore_after_each_step": 1, "use_ng": 1, "compress_solver": 1, "DEBUG_NG_turn_off_CLEAN": false, "max_nodes_split": Infinity}, "output_ilp_solution": {"delta_capRem_0": 6.0, "delta_timeRem_0": 102.0, "delta_capRem_1": 20.0, "delta_timeRem_1": 208.0, "delta_capRem_2": 7.0, "delta_timeRem_2": 115.0, "delta_capRem_3": 4.0, "delta_timeRem_3": 85.0, "delta_capRem_4": 9.0, "delta_timeRem_4": 127.0, "delta_capRem_5": 14.0, "delta_timeRem_5": 172.0, "delta_capRem_6": 12.0, "delta_timeRem_6": 159.0, "delta_capRem_7": 10.0, "delta_timeRem_7": 144.0, "delta_capRem_8": 9.0, "delta_timeRem_8": 103.3, "delta_capRem_9": 3.0, "delta_timeRem_9": 63.0, "delta_capRem_10": 7.0, "delta_timeRem_10": 88.0, "delta_capRem_11": 20.0, "delta_timeRem_11": 191.0, "delta_capRem_12": 10.0, "delta_timeRem_12": 118.3, "delta_capRem_13": 17.0, "delta_timeRem_13": 176.1, "delta_capRem_14": 12.0, "delta_timeRem_14": 134.1, "delta_capRem_15": 14.0, "delta_timeRem_15": 146.1, "delta_capRem_16": 16.0, "delta_timeRem_16": 161.1, "delta_capRem_17": 12.0, "delta_timeRem_17": 140.3, "delta_capRem_18": 10.0, "delta_timeRem_18": 125.0, "delta_capRem_19": 6.0, "delta_timeRem_19": 94.0, "delta_capRem_20": 13.0, "delta_timeRem_20": 154.3, "delta_capRem_21": 5.0, "delta_timeRem_21": 82.0, "delta_capRem_22": 16.0, "delta_timeRem_22": 166.3, "delta_capRem_23": 1.0, "delta_timeRem_23": 46.0, "delta_capRem_24": 18.0, "delta_timeRem_24": 179.3, "act_0_3": 1, "act_1_5": 1, "act_2_0": 1, "act_3_26": 1, "act_4_2": 1, "act_5_6": 1, "act_6_7": 1, "act_7_4": 1, "act_8_10": 1, "act_9_26": 1, "act_10_9": 1, "act_11_13": 1, "act_12_8": 1, "act_13_16": 1, "act_14_12": 1, "act_15_14": 1, "act_16_15": 1, "act_17_18": 1, "act_18_19": 1, "act_19_21": 1, "act_20_17": 1, "act_21_23": 1, "act_22_20": 1, "act_23_26": 1, "act_24_22": 1, "act_25_1": 1, "act_25_11": 1, "act_25_24": 1}, "Actions_of_given_sol": "none just used source and sink terms", "actions_used": ["act_0_3", "act_1_5", "act_2_0", "act_3_26", "act_4_2", "act_5_6", "act_6_7", "act_7_4", "act_8_10", "act_9_26", "act_10_9", "act_11_13", "act_12_8", "act_13_16", "act_14_12", "act_15_14", "act_16_15", "act_17_18", "act_18_19", "act_19_21", "act_20_17", "act_21_23", "act_22_20", "act_23_26", "act_24_22", "act_25_1", "act_25_11", "act_25_24"], "init_default_solution_is_empty": false, "objective_of_initial_sol": 1884.3999999999999, "my_paths": "[[25, 1, 5, 6, 7, 4, 2, 0, 3, 26], [25, 11, 13, 16, 15, 14, 12, 8, 10, 9, 26], [25, 24, 22, 20, 17, 18, 19, 21, 23, 26]]"}